set VV := 0 1 2 3 4 5 6 7 8 9 10 11 12 13 14 15 16 17 18 19 20 21 22 23 24 25 26 27 28 29 30 31 32 33 34 35 36 37 38 39 40 41 42 ;
set VS := 0 1 2 3 4 5 6 7 8 9 10 11 12 13 14 15 16 17 18 19 20 21 22 23 24 25 26 27 28 29 30 31 32 33 34 35 36 37 38 39 40 41 42 43 44 45 46 47 48 49 50 51 52 53 54 55 56 57 58 59 60 61 62 63 64 65 66 67 68 69 70 71 72 73 74 75 76 77 78 79 80 81 82 83 84 85 86 87 88 89 90 ;
param cv := 
0 23
1 18
2 22
3 18
4 12
5 21
6 18
7 22
8 15
9 19
10 10
11 12
12 20
13 24
14 13
15 21
16 16
17 24
18 19
19 22
20 12
21 18
22 12
23 24
24 19
25 24
26 19
27 20
28 10
29 24
30 17
31 15
32 20
33 16
34 14
35 18
36 24
37 18
38 13
39 12
40 13
41 23
42 23
;
param cs := 
0 23
1 26
2 32
3 20
4 32
5 34
6 39
7 40
8 39
9 24
10 27
11 29
12 35
13 25
14 22
15 25
16 32
17 20
18 23
19 33
20 36
21 24
22 39
23 31
24 35
25 26
26 36
27 29
28 40
29 28
30 29
31 26
32 24
33 37
34 35
35 40
36 40
37 25
38 33
39 35
40 28
41 23
42 39
43 32
44 22
45 28
46 20
47 32
48 36
49 31
50 31
51 23
52 22
53 33
54 40
55 21
56 39
57 38
58 34
59 25
60 39
61 20
62 28
63 31
64 38
65 29
66 29
67 21
68 35
69 34
70 34
71 32
72 36
73 23
74 32
75 27
76 32
77 35
78 40
79 32
80 32
81 36
82 28
83 24
84 29
85 27
86 39
87 33
88 40
89 35
90 24
;
param bv:	 0 1 2 3 4 5 6 7 8 9 10 11 12 13 14 15 16 17 18 19 20 21 22 23 24 25 26 27 28 29 30 31 32 33 34 35 36 37 38 39 40 41 42 := 
		0 0 0 0 12 0 0 0 0 0 0 0 0 0 18 11 0 0 23 0 0 17 12 0 0 0 0 0 11 0 0 0 0 0 0 0 18 0 0 0 0 0 0 0 
		1 0 0 0 0 0 0 0 0 0 0 22 0 0 21 0 0 0 0 0 0 0 16 0 0 0 0 0 0 0 0 19 0 0 23 0 0 0 0 0 0 0 0 0 
		2 0 0 0 0 0 0 0 0 20 23 22 13 0 0 0 0 0 0 0 0 0 0 0 0 0 0 10 0 22 0 0 0 0 0 0 0 0 0 16 0 0 0 0 
		3 0 0 0 0 0 12 0 0 0 0 0 0 0 17 14 0 0 22 0 0 0 0 0 0 10 0 0 0 0 17 0 0 0 0 0 0 0 0 0 0 0 0 0 
		4 0 0 0 0 0 0 0 17 0 0 23 0 0 0 17 0 0 0 0 0 0 0 0 0 0 0 0 0 0 0 0 0 0 0 0 0 0 0 0 0 0 21 0 
		5 0 0 0 0 0 0 0 0 0 15 0 0 0 0 0 0 0 0 0 0 0 0 0 0 0 0 0 0 21 0 0 0 0 0 0 0 0 0 0 18 0 0 0 
		6 0 0 0 0 0 0 0 0 0 0 0 0 0 0 0 0 0 0 0 0 0 0 0 0 0 14 0 0 0 0 0 0 0 0 0 0 0 0 0 0 0 0 0 
		7 0 0 0 0 0 0 0 0 0 0 0 0 0 0 0 0 0 0 0 0 0 0 0 0 0 0 0 0 12 0 0 0 0 0 0 0 0 0 0 0 17 0 0 
		8 0 0 0 0 0 0 0 0 0 0 0 0 0 0 0 0 0 0 0 0 0 0 0 0 0 0 0 0 0 0 0 0 0 0 18 0 0 0 0 0 0 0 0 
		9 0 0 0 0 0 0 0 0 0 0 0 0 23 0 0 0 0 0 10 0 0 0 0 0 0 0 0 0 0 0 0 0 0 0 0 0 0 0 0 0 0 0 17 
		10 0 0 0 0 0 0 0 0 0 0 0 0 0 0 0 0 0 0 0 0 19 21 0 0 18 0 0 0 0 0 0 0 0 0 0 0 0 0 0 0 0 0 25 
		11 0 0 0 0 0 0 0 0 0 0 0 0 0 0 0 0 0 0 0 0 0 0 0 13 0 0 0 0 0 0 0 0 0 0 0 0 0 0 0 0 0 0 0 
		12 0 0 0 0 0 0 0 0 0 0 0 0 0 0 0 0 0 15 0 0 0 0 21 0 0 0 0 0 0 11 0 0 0 0 0 0 0 0 0 0 0 0 0 
		13 0 0 0 0 0 0 0 0 0 0 0 0 0 0 0 0 0 21 0 0 0 0 11 21 0 0 0 0 0 0 0 0 13 0 0 0 0 0 0 0 15 0 0 
		14 0 0 0 0 0 0 0 0 0 0 0 0 0 0 0 0 0 0 0 20 0 0 0 0 16 0 0 0 0 0 23 0 0 24 0 16 0 0 0 11 0 0 0 
		15 0 0 0 0 0 0 0 0 0 0 0 0 0 0 0 0 13 0 0 0 0 0 0 0 20 0 0 0 0 0 0 23 0 0 0 0 0 0 0 0 0 25 22 
		16 0 0 0 0 0 0 0 0 0 0 0 0 0 0 0 0 0 0 0 0 0 0 0 17 0 0 0 0 0 0 0 0 0 14 0 0 0 0 0 0 0 0 0 
		17 0 0 0 0 0 0 0 0 0 0 0 0 0 0 0 0 0 0 0 0 0 0 0 0 0 0 22 0 0 0 0 0 0 0 0 0 25 0 0 0 0 0 0 
		18 0 0 0 0 0 0 0 0 0 0 0 0 0 0 0 0 0 0 0 16 0 19 0 0 0 16 0 0 0 0 0 0 0 0 0 0 23 0 0 0 0 0 0 
		19 0 0 0 0 0 0 0 0 0 0 0 0 0 0 0 0 0 0 0 0 0 11 0 0 15 0 0 24 0 0 12 0 0 16 0 0 0 0 0 10 0 0 0 
		20 0 0 0 0 0 0 0 0 0 0 0 0 0 0 0 0 0 0 0 0 0 0 0 0 0 0 0 0 0 15 0 0 0 0 0 0 0 0 0 11 0 0 0 
		21 0 0 0 0 0 0 0 0 0 0 0 0 0 0 0 0 0 0 0 0 0 0 0 0 0 19 0 0 0 0 0 0 0 0 0 0 25 0 11 0 0 0 0 
		22 0 0 0 0 0 0 0 0 0 0 0 0 0 0 0 0 0 0 0 0 0 0 0 0 0 0 0 0 21 13 0 0 0 24 0 0 0 11 11 0 0 0 0 
		23 0 0 0 0 0 0 0 0 0 0 0 0 0 0 0 0 0 0 0 0 0 0 0 0 0 0 0 0 0 0 0 0 0 0 0 0 0 0 0 0 0 0 23 
		24 0 0 0 0 0 0 0 0 0 0 0 0 0 0 0 0 0 0 0 0 0 0 0 0 0 0 24 0 0 0 10 0 0 0 0 0 0 0 18 0 0 0 0 
		25 0 0 0 0 0 0 0 0 0 0 0 0 0 0 0 0 0 0 0 0 0 0 0 0 0 0 0 0 0 0 0 0 0 0 0 0 0 15 0 0 0 0 0 
		26 0 0 0 0 0 0 0 0 0 0 0 0 0 0 0 0 0 0 0 0 0 0 0 0 0 0 0 0 0 0 21 0 0 13 0 0 0 0 0 25 0 19 24 
		27 0 0 0 0 0 0 0 0 0 0 0 0 0 0 0 0 0 0 0 0 0 0 0 0 0 0 0 0 0 0 25 0 0 0 0 24 0 0 0 0 17 24 0 
		28 0 0 0 0 0 0 0 0 0 0 0 0 0 0 0 0 0 0 0 0 0 0 0 0 0 0 0 0 0 0 0 0 0 0 0 0 0 0 0 0 0 0 23 
		29 0 0 0 0 0 0 0 0 0 0 0 0 0 0 0 0 0 0 0 0 0 0 0 0 0 0 0 0 0 0 0 0 0 23 0 0 0 0 0 0 0 0 0 
		30 0 0 0 0 0 0 0 0 0 0 0 0 0 0 0 0 0 0 0 0 0 0 0 0 0 0 0 0 0 0 0 0 0 0 0 0 0 0 0 10 0 15 0 
		31 0 0 0 0 0 0 0 0 0 0 0 0 0 0 0 0 0 0 0 0 0 0 0 0 0 0 0 0 0 0 0 0 0 0 0 0 0 0 0 0 0 0 0 
		32 0 0 0 0 0 0 0 0 0 0 0 0 0 0 0 0 0 0 0 0 0 0 0 0 0 0 0 0 0 0 0 0 0 0 0 0 0 0 0 0 0 0 0 
		33 0 0 0 0 0 0 0 0 0 0 0 0 0 0 0 0 0 0 0 0 0 0 0 0 0 0 0 0 0 0 0 0 0 0 0 0 0 25 23 0 20 0 0 
		34 0 0 0 0 0 0 0 0 0 0 0 0 0 0 0 0 0 0 0 0 0 0 0 0 0 0 0 0 0 0 0 0 0 0 0 0 0 0 0 0 0 0 0 
		35 0 0 0 0 0 0 0 0 0 0 0 0 0 0 0 0 0 0 0 0 0 0 0 0 0 0 0 0 0 0 0 0 0 0 0 0 0 0 0 0 21 0 0 
		36 0 0 0 0 0 0 0 0 0 0 0 0 0 0 0 0 0 0 0 0 0 0 0 0 0 0 0 0 0 0 0 0 0 0 0 0 0 0 0 0 0 0 0 
		37 0 0 0 0 0 0 0 0 0 0 0 0 0 0 0 0 0 0 0 0 0 0 0 0 0 0 0 0 0 0 0 0 0 0 0 0 0 0 0 0 0 0 0 
		38 0 0 0 0 0 0 0 0 0 0 0 0 0 0 0 0 0 0 0 0 0 0 0 0 0 0 0 0 0 0 0 0 0 0 0 0 0 0 0 0 0 0 0 
		39 0 0 0 0 0 0 0 0 0 0 0 0 0 0 0 0 0 0 0 0 0 0 0 0 0 0 0 0 0 0 0 0 0 0 0 0 0 0 0 0 11 0 0 
		40 0 0 0 0 0 0 0 0 0 0 0 0 0 0 0 0 0 0 0 0 0 0 0 0 0 0 0 0 0 0 0 0 0 0 0 0 0 0 0 0 0 0 0 
		41 0 0 0 0 0 0 0 0 0 0 0 0 0 0 0 0 0 0 0 0 0 0 0 0 0 0 0 0 0 0 0 0 0 0 0 0 0 0 0 0 0 0 0 
		42 0 0 0 0 0 0 0 0 0 0 0 0 0 0 0 0 0 0 0 0 0 0 0 0 0 0 0 0 0 0 0 0 0 0 0 0 0 0 0 0 0 0 0 
;
param bs:	 0 1 2 3 4 5 6 7 8 9 10 11 12 13 14 15 16 17 18 19 20 21 22 23 24 25 26 27 28 29 30 31 32 33 34 35 36 37 38 39 40 41 42 43 44 45 46 47 48 49 50 51 52 53 54 55 56 57 58 59 60 61 62 63 64 65 66 67 68 69 70 71 72 73 74 75 76 77 78 79 80 81 82 83 84 85 86 87 88 89 90 := 
		0 0 0 0 0 0 0 0 0 0 0 0 22 0 0 0 34 40 0 27 0 0 0 0 0 0 0 0 0 0 0 0 0 0 21 0 0 0 0 0 0 0 0 0 0 22 0 22 0 0 0 28 32 0 0 0 0 0 0 0 0 27 0 0 0 0 21 0 0 0 0 0 0 32 0 0 0 0 0 0 0 0 0 0 0 0 0 0 23 0 0 0 
		1 0 0 0 0 0 0 0 0 0 0 0 0 0 0 0 0 0 0 0 0 0 0 0 0 0 0 0 0 0 0 0 0 40 0 0 0 0 0 0 0 0 0 0 0 0 37 0 0 0 0 0 0 0 0 0 0 0 0 0 24 26 0 0 0 0 0 0 0 0 0 0 0 0 0 0 0 0 0 0 0 0 0 0 0 0 0 0 0 0 0 0 
		2 0 0 0 0 0 0 0 0 0 0 0 0 0 0 0 0 0 0 0 36 36 0 0 0 0 0 0 23 0 0 0 0 0 0 0 0 21 0 0 38 0 0 0 0 0 0 0 0 0 0 0 27 0 37 0 0 0 0 0 0 0 0 0 20 0 0 0 0 0 28 0 0 0 0 0 0 0 0 0 28 0 0 0 0 0 0 0 0 0 0 0 
		3 0 0 0 0 31 0 0 0 0 0 0 0 0 0 0 0 0 0 0 40 31 0 0 0 0 31 0 0 0 0 0 0 0 0 0 0 0 0 0 0 0 0 0 32 0 0 0 0 0 0 27 0 0 0 33 0 0 0 0 35 0 0 0 0 0 0 0 0 0 0 0 0 0 0 0 0 0 0 0 0 0 0 0 0 0 37 0 0 0 0 0 
		4 0 0 0 31 0 0 0 0 0 0 0 0 0 0 0 0 0 0 0 22 0 0 0 0 0 0 0 0 0 31 0 0 0 0 0 37 0 0 0 0 0 0 0 0 0 0 22 0 0 28 0 0 0 0 26 0 0 38 0 0 0 0 0 0 0 0 0 0 0 0 0 0 0 0 0 0 0 0 0 0 0 0 28 0 0 0 0 0 0 0 0 
		5 0 0 0 0 0 0 0 0 0 0 0 0 30 0 0 0 0 0 39 0 0 0 0 0 0 0 0 0 0 0 0 0 0 0 0 0 0 0 0 26 0 0 0 0 0 0 0 0 0 0 0 0 0 0 0 27 0 0 0 0 0 0 0 32 40 0 0 0 0 0 0 0 0 0 0 0 0 0 0 0 0 0 33 0 0 0 0 0 21 0 39 
		6 0 0 0 0 0 0 0 0 0 0 0 0 0 0 28 0 0 0 0 0 0 0 0 0 0 0 0 0 0 0 0 0 0 24 0 0 20 0 0 0 0 0 0 25 0 0 0 0 0 0 26 0 0 0 33 0 0 0 0 0 0 0 35 0 0 0 27 0 0 0 0 0 0 0 0 0 39 34 25 0 0 0 0 0 0 0 0 0 0 0 0 
		7 0 0 0 0 0 0 0 0 0 39 40 0 0 0 0 0 0 0 0 0 0 0 0 0 0 0 0 33 0 0 0 0 0 0 0 0 0 0 0 0 32 30 0 0 0 0 27 0 0 0 0 0 0 0 0 0 0 0 0 0 0 40 0 0 0 27 0 0 0 0 0 0 0 0 0 0 20 0 0 0 0 0 0 0 0 0 0 0 0 0 40 
		8 0 0 0 0 0 0 0 0 0 0 0 0 0 0 0 22 0 0 0 0 0 0 0 26 0 0 0 0 21 0 0 0 0 0 0 0 0 0 0 0 0 0 0 0 0 0 0 0 0 0 0 0 0 0 0 0 0 0 0 0 0 0 0 0 0 0 0 0 0 0 0 0 0 36 0 0 0 0 0 0 0 0 0 0 0 0 0 0 0 33 0 
		9 0 0 0 0 0 0 0 39 0 0 0 0 24 0 0 0 0 0 21 20 0 0 0 0 0 0 0 0 0 0 0 0 0 0 0 0 0 0 0 0 0 0 22 0 0 0 0 0 0 0 0 0 35 39 0 0 0 0 0 0 0 0 0 0 0 0 0 0 0 0 0 0 0 0 0 0 39 30 0 0 0 0 0 0 0 0 0 0 0 0 22 
		10 0 0 0 0 0 0 0 40 0 0 0 0 0 0 0 0 0 0 0 0 0 0 0 0 0 0 0 0 0 28 0 0 0 0 0 20 0 0 0 0 0 0 0 0 0 0 0 0 0 0 0 0 0 0 28 0 0 0 0 0 0 0 0 0 0 0 0 33 0 0 0 0 37 0 20 0 0 0 0 0 0 0 0 0 0 0 0 0 0 0 0 
		11 22 0 0 0 0 0 0 0 0 0 0 0 0 0 0 0 0 0 0 0 35 0 32 0 0 0 24 0 0 0 0 0 0 0 0 38 0 0 0 0 0 0 0 0 0 0 0 20 0 0 33 0 0 0 0 0 21 0 0 0 0 0 0 0 0 0 0 0 0 0 0 0 0 0 21 30 0 0 0 0 0 0 0 0 0 40 0 0 0 0 0 
		12 0 0 0 0 0 30 0 0 0 24 0 0 0 0 29 0 31 0 0 0 0 37 0 0 0 0 0 31 20 0 0 22 0 0 0 0 36 0 0 0 0 0 29 0 0 0 0 0 0 37 0 0 0 0 0 0 0 0 0 0 37 24 0 0 22 0 0 0 0 0 0 0 0 0 0 24 0 0 0 0 22 0 0 0 0 0 0 32 0 0 0 
		13 0 0 0 0 0 0 0 0 0 0 0 0 0 0 0 0 37 29 0 0 0 0 0 0 28 0 0 0 0 0 0 0 0 0 0 0 28 0 0 0 0 0 0 0 0 20 0 36 0 0 0 0 0 0 0 0 35 30 0 0 0 0 0 0 0 0 0 0 0 0 0 0 0 23 0 0 0 0 0 0 0 0 0 0 0 0 30 36 0 0 0 
		14 0 0 0 0 0 0 28 0 0 0 0 0 29 0 0 35 0 0 0 0 0 0 0 0 0 33 0 0 0 0 0 0 0 26 0 24 0 0 0 0 0 0 0 0 29 36 0 0 0 0 0 0 0 0 0 0 0 0 0 0 0 0 0 0 0 0 0 0 37 0 38 0 0 0 0 0 0 24 32 0 0 0 22 0 0 0 0 0 0 36 0 
		15 34 0 0 0 0 0 0 0 22 0 0 0 0 0 35 0 0 0 0 0 0 0 0 0 0 0 0 0 0 0 0 0 0 21 0 0 0 0 0 0 0 0 0 0 0 0 0 0 0 0 0 0 0 0 0 0 0 0 0 21 0 40 0 0 24 0 0 0 0 25 0 0 0 0 0 0 0 0 0 27 37 0 0 0 0 0 0 0 0 0 0 
		16 40 0 0 0 0 0 0 0 0 0 0 0 31 37 0 0 0 0 0 0 0 0 39 0 0 0 0 0 0 0 0 0 0 0 0 0 0 0 0 25 0 0 0 0 0 0 0 0 0 0 0 0 0 0 0 0 0 0 0 0 0 0 0 0 0 0 29 0 0 0 0 0 0 28 0 0 0 0 0 0 0 0 0 0 0 0 23 0 0 0 0 
		17 0 0 0 0 0 0 0 0 0 0 0 0 0 29 0 0 0 0 0 0 0 0 0 0 0 0 29 0 0 0 0 0 0 0 0 0 0 0 0 0 0 35 0 0 0 23 0 0 0 0 39 0 0 0 0 0 0 20 0 20 0 28 0 0 0 0 0 0 26 0 0 0 0 24 0 0 34 0 0 0 0 35 0 27 0 26 0 0 0 0 0 
		18 27 0 0 0 0 39 0 0 0 21 0 0 0 0 0 0 0 0 0 0 0 0 0 0 0 0 0 0 0 0 0 0 0 37 0 0 0 0 0 28 0 31 0 34 0 0 0 0 0 0 0 0 0 0 0 0 0 0 0 0 0 30 0 0 27 0 23 0 0 0 0 0 0 0 0 0 0 0 0 0 0 21 0 0 0 0 0 0 0 0 0 
		19 0 0 36 40 22 0 0 0 0 20 0 0 0 0 0 0 0 0 0 0 0 0 0 0 0 0 0 0 0 0 0 0 0 0 0 0 0 0 0 0 0 0 0 0 0 0 0 0 23 0 26 0 0 0 0 0 0 0 0 0 0 0 0 0 0 0 0 0 0 0 0 0 0 36 0 0 0 0 0 0 35 0 0 0 0 33 0 0 0 0 0 
		20 0 0 36 31 0 0 0 0 0 0 0 35 0 0 0 0 0 0 0 0 0 0 0 0 0 0 0 0 0 0 0 0 0 0 0 0 0 0 0 37 0 0 0 0 0 0 0 21 0 0 0 0 0 32 0 0 29 0 0 0 0 0 0 0 0 0 0 0 39 0 0 0 0 22 0 0 0 0 0 0 0 0 34 0 0 0 0 0 0 0 0 
		21 0 0 0 0 0 0 0 0 0 0 0 0 37 0 0 0 0 0 0 0 0 0 0 0 0 33 30 0 0 0 0 0 0 0 0 0 0 0 0 0 0 0 0 0 0 0 0 0 0 35 39 29 0 0 0 0 0 0 0 0 0 21 0 0 0 0 0 0 0 0 0 0 33 0 0 0 0 0 33 0 0 0 0 0 0 0 0 0 0 0 0 
		22 0 0 0 0 0 0 0 0 0 0 0 32 0 0 0 0 39 0 0 0 0 0 0 0 0 32 0 0 0 0 0 0 0 0 0 0 0 0 0 0 0 28 0 39 0 0 23 0 0 0 0 0 0 0 0 0 0 0 0 0 0 0 0 0 0 0 0 0 0 0 26 29 0 0 0 0 0 24 0 0 0 0 0 0 0 0 0 0 0 0 0 
		23 0 0 0 0 0 0 0 0 26 0 0 0 0 0 0 0 0 0 0 0 0 0 0 0 0 0 0 0 0 40 0 0 0 0 0 0 0 0 36 0 0 0 0 0 0 0 0 30 0 0 0 0 0 0 0 0 0 0 23 0 0 0 0 26 0 0 0 0 0 0 0 0 0 0 0 0 0 0 0 0 0 0 0 0 31 0 39 0 0 0 0 
		24 0 0 0 0 0 0 0 0 0 0 0 0 0 28 0 0 0 0 0 0 0 0 0 0 0 0 0 0 0 0 0 33 0 0 0 0 0 0 0 0 0 0 0 0 0 25 0 0 0 0 0 0 21 0 0 40 0 0 0 0 0 0 0 0 0 0 0 0 39 0 0 0 0 0 0 0 0 0 0 0 0 0 0 0 0 0 0 0 0 0 0 
		25 0 0 0 31 0 0 0 0 0 0 0 0 0 0 33 0 0 0 0 0 0 33 32 0 0 0 0 0 0 26 0 0 0 0 0 0 0 0 0 0 0 0 0 0 0 39 0 0 0 32 0 0 0 0 0 0 0 0 0 0 0 27 0 0 0 33 0 0 39 0 0 0 0 0 31 0 0 0 25 0 0 27 0 0 0 0 0 0 0 22 0 
		26 0 0 0 0 0 0 0 0 0 0 0 24 0 0 0 0 0 29 0 0 0 30 0 0 0 0 0 0 0 35 0 0 0 0 0 0 0 0 0 0 0 0 0 25 38 35 0 34 0 24 0 0 0 0 29 0 0 0 0 0 0 0 0 0 0 0 0 0 0 0 0 26 28 27 0 0 0 0 0 0 0 0 0 0 0 0 0 0 0 0 0 
		27 0 0 23 0 0 0 0 33 0 0 0 0 31 0 0 0 0 0 0 0 0 0 0 0 0 0 0 0 0 0 38 0 0 0 0 0 0 0 0 0 0 0 25 0 0 0 0 0 0 0 0 0 0 0 0 28 0 0 0 0 0 0 0 0 0 0 0 0 0 0 0 0 0 0 0 0 0 0 0 20 0 0 0 0 0 0 0 0 0 29 0 
		28 0 0 0 0 0 0 0 0 21 0 0 0 20 0 0 0 0 0 0 0 0 0 0 0 0 0 0 0 0 0 0 0 0 0 0 0 0 0 0 0 0 0 0 0 0 0 0 0 0 33 0 0 0 0 0 0 0 0 0 0 0 0 0 0 0 31 0 0 0 0 37 0 0 0 0 0 34 0 28 0 0 0 0 0 33 0 0 0 0 0 0 
		29 0 0 0 0 31 0 0 0 0 0 28 0 0 0 0 0 0 0 0 0 0 0 0 40 0 26 35 0 0 0 0 0 0 31 0 0 0 0 0 0 0 0 0 0 34 0 0 0 0 0 0 0 0 0 0 32 0 0 0 0 0 0 0 0 0 0 0 0 0 0 0 0 0 0 20 0 0 0 0 0 0 0 0 0 0 32 0 0 0 0 0 
		30 0 0 0 0 0 0 0 0 0 0 0 0 0 0 0 0 0 0 0 0 0 0 0 0 0 0 0 38 0 0 0 0 0 0 0 0 0 0 0 40 0 0 0 24 0 0 0 26 0 0 0 0 0 0 0 0 0 0 0 0 0 0 0 0 37 0 36 0 0 0 0 0 0 0 23 0 0 0 0 0 0 0 0 0 0 0 0 0 0 0 0 
		31 0 0 0 0 0 0 0 0 0 0 0 0 22 0 0 0 0 0 0 0 0 0 0 0 33 0 0 0 0 0 0 0 0 0 0 0 0 0 24 0 0 0 0 21 0 0 0 0 0 0 0 0 0 0 0 0 0 0 0 35 0 0 0 0 0 0 0 0 0 0 0 0 0 0 0 0 0 0 0 26 0 21 0 0 0 29 0 0 0 0 0 
		32 0 40 0 0 0 0 0 0 0 0 0 0 0 0 0 0 0 0 0 0 0 0 0 0 0 0 0 0 0 0 0 0 0 0 0 22 0 0 39 0 0 0 0 0 0 0 0 0 0 0 0 0 0 33 0 21 0 0 0 0 0 0 0 23 0 0 0 0 0 0 0 0 0 0 31 0 0 0 23 0 0 0 0 0 0 0 0 0 0 0 0 
		33 21 0 0 0 0 0 24 0 0 0 0 0 0 0 26 21 0 0 37 0 0 0 0 0 0 0 0 0 0 31 0 0 0 0 0 0 0 0 0 0 0 0 27 25 0 0 0 0 0 0 0 0 0 0 0 0 0 0 0 0 0 0 25 0 0 27 0 0 0 0 27 0 0 0 0 0 0 0 0 0 0 0 0 0 0 0 0 32 0 0 0 
		34 0 0 0 0 0 0 0 0 0 0 0 0 0 0 0 0 0 0 0 0 0 0 0 0 0 0 0 0 0 0 0 0 0 0 0 0 27 0 0 0 0 0 0 0 0 0 0 0 0 0 0 0 0 0 0 0 0 0 0 0 0 0 0 0 0 0 0 0 0 0 0 0 0 0 0 0 0 25 0 0 0 0 0 0 0 0 32 0 0 0 0 
		35 0 0 0 0 37 0 0 0 0 0 20 38 0 0 24 0 0 0 0 0 0 0 0 0 0 0 0 0 0 0 0 0 22 0 0 0 0 0 0 0 0 0 0 21 0 0 0 0 0 30 22 0 0 0 29 0 0 0 0 0 0 0 31 0 0 40 0 0 0 0 0 0 0 0 0 0 0 0 0 0 0 0 0 0 0 34 0 0 0 0 0 
		36 0 0 21 0 0 0 20 0 0 0 0 0 36 28 0 0 0 0 0 0 0 0 0 0 0 0 0 0 0 0 0 0 0 0 27 0 0 0 0 28 0 0 0 0 0 0 0 0 0 0 0 21 0 0 0 0 0 0 0 0 0 0 0 0 0 0 0 0 0 0 0 0 0 0 0 0 0 0 0 0 0 0 0 34 0 0 27 0 0 0 20 
		37 0 0 0 0 0 0 0 0 0 0 0 0 0 0 0 0 0 0 0 0 0 0 0 0 0 0 0 0 0 0 0 0 0 0 0 0 0 0 0 0 0 0 0 0 0 0 0 0 0 0 0 0 0 0 0 0 33 0 0 0 0 0 0 0 0 28 0 0 0 0 0 0 0 0 0 0 0 0 0 30 0 0 35 21 0 0 0 38 0 0 0 
		38 0 0 0 0 0 0 0 0 0 0 0 0 0 0 0 0 0 0 0 0 0 0 0 36 0 0 0 0 0 0 0 24 39 0 0 0 0 0 0 0 0 0 0 21 0 0 0 0 0 0 0 0 0 0 0 0 0 0 0 0 0 0 28 0 31 0 0 0 26 38 0 0 0 0 0 0 0 0 0 0 0 37 0 0 0 0 0 0 0 0 28 
		39 0 0 38 0 0 26 0 0 0 0 0 0 0 0 0 0 25 0 28 0 37 0 0 0 0 0 0 0 0 0 40 0 0 0 0 0 28 0 0 0 0 23 31 0 0 0 0 0 0 0 0 0 0 0 0 0 0 0 0 0 0 0 0 0 0 0 40 0 0 22 0 0 0 0 0 0 0 0 0 0 0 0 0 0 0 0 0 0 29 0 0 
		40 0 0 0 0 0 0 0 32 0 0 0 0 0 0 0 0 0 0 0 0 0 0 0 0 0 0 0 0 0 0 0 0 0 0 0 0 0 0 0 0 0 0 0 0 0 0 0 0 0 0 35 0 0 0 0 0 0 0 0 0 32 0 0 0 21 0 0 0 0 27 0 0 0 35 0 0 0 0 0 35 0 0 0 0 0 0 0 0 0 0 0 
		41 0 0 0 0 0 0 0 30 0 0 0 0 0 0 0 0 0 35 31 0 0 0 28 0 0 0 0 0 0 0 0 0 0 0 0 0 0 0 0 23 0 0 26 0 0 0 0 0 0 0 0 0 0 0 0 0 0 0 0 0 0 0 38 0 0 0 0 0 0 0 0 0 0 0 0 0 39 0 0 34 0 0 27 0 0 0 0 30 0 0 0 
		42 0 0 0 0 0 0 0 0 0 22 0 0 29 0 0 0 0 0 0 0 0 0 0 0 0 0 0 25 0 0 0 0 0 27 0 0 0 0 0 31 0 26 0 0 0 0 0 0 0 0 0 0 0 0 0 0 0 0 0 0 0 0 0 0 0 0 0 0 0 0 0 0 0 0 0 0 0 0 0 30 0 0 0 0 0 0 0 35 0 0 28 
		43 0 0 0 32 0 0 25 0 0 0 0 0 0 0 0 0 0 0 34 0 0 0 39 0 0 0 25 0 0 0 24 21 0 25 0 21 0 0 21 0 0 0 0 0 0 0 0 0 0 0 0 0 0 0 0 38 0 0 0 35 0 31 0 0 0 0 0 0 0 0 0 0 0 0 0 0 0 0 0 0 0 0 0 0 0 0 0 0 0 0 0 
		44 22 0 0 0 0 0 0 0 0 0 0 0 0 0 29 0 0 0 0 0 0 0 0 0 0 0 38 0 0 34 0 0 0 0 0 0 0 0 0 0 0 0 0 0 0 0 0 0 0 26 0 0 0 0 0 0 0 0 0 0 0 33 0 0 0 0 0 0 0 0 0 0 0 32 0 0 0 0 29 0 0 0 0 0 0 0 0 0 0 0 0 
		45 0 37 0 0 0 0 0 0 0 0 0 0 0 20 36 0 0 23 0 0 0 0 0 0 25 39 35 0 0 0 0 0 0 0 0 0 0 0 0 0 0 0 0 0 0 0 0 0 0 0 0 0 0 0 22 0 0 0 0 30 23 0 0 0 0 0 0 0 0 0 0 0 39 34 0 0 0 0 26 0 39 27 0 0 0 0 0 0 0 24 0 
		46 22 0 0 0 22 0 0 27 0 0 0 0 0 0 0 0 0 0 0 0 0 0 23 0 0 0 0 0 0 0 0 0 0 0 0 0 0 0 0 0 0 0 0 0 0 0 0 39 0 0 0 0 0 27 0 0 0 0 0 0 0 0 0 0 0 0 0 28 35 0 0 0 0 0 0 0 0 0 0 0 0 0 0 0 0 0 0 27 0 0 0 
		47 0 0 0 0 0 0 0 0 0 0 0 20 0 36 0 0 0 0 0 0 21 0 0 30 0 0 34 0 0 0 26 0 0 0 0 0 0 0 0 0 0 0 0 0 0 0 39 0 0 0 0 0 0 0 0 0 0 0 0 0 0 0 0 0 0 0 39 0 0 0 29 0 0 27 0 0 0 0 0 0 0 0 0 0 0 0 0 0 0 0 0 
		48 0 0 0 0 0 0 0 0 0 0 0 0 0 0 0 0 0 0 0 23 0 0 0 0 0 0 0 0 0 0 0 0 0 0 0 0 0 0 0 0 0 0 0 0 0 0 0 0 0 0 0 0 0 0 28 0 0 0 0 0 0 0 0 0 0 0 0 0 0 0 0 21 0 0 0 20 0 0 0 0 0 0 0 0 0 0 0 0 0 0 0 
		49 0 0 0 0 28 0 0 0 0 0 0 0 37 0 0 0 0 0 0 0 0 35 0 0 0 32 24 0 33 0 0 0 0 0 0 30 0 0 0 0 0 0 0 0 26 0 0 0 0 0 0 29 0 0 0 0 0 0 0 0 0 28 0 0 0 0 0 0 31 0 0 0 0 23 21 0 0 0 0 0 0 0 0 0 0 0 0 0 0 0 0 
		50 28 0 0 27 0 0 26 0 0 0 0 33 0 0 0 0 0 39 0 26 0 39 0 0 0 0 0 0 0 0 0 0 0 0 0 22 0 0 0 0 35 0 0 0 0 0 0 0 0 0 0 0 22 0 35 0 0 22 0 0 0 0 0 0 0 0 0 0 0 0 0 35 0 0 0 0 0 24 0 0 0 0 0 0 0 0 0 0 0 0 0 
		51 32 0 27 0 0 0 0 0 0 0 0 0 0 0 0 0 0 0 0 0 0 29 0 0 0 0 0 0 0 0 0 0 0 0 0 0 21 0 0 0 0 0 0 0 0 0 0 0 0 29 0 0 0 0 0 0 0 0 38 0 0 0 0 0 0 0 0 0 40 0 0 0 0 0 0 0 0 0 0 0 0 0 0 0 0 0 0 0 0 0 0 
		52 0 0 0 0 0 0 0 0 0 35 0 0 0 0 0 0 0 0 0 0 0 0 0 0 21 0 0 0 0 0 0 0 0 0 0 0 0 0 0 0 0 0 0 0 0 0 0 0 0 0 22 0 0 0 0 0 0 0 0 0 0 0 0 0 0 0 0 0 0 0 0 0 0 0 0 0 0 0 0 0 0 23 0 0 0 0 0 0 0 0 0 
		53 0 0 37 0 0 0 0 0 0 39 0 0 0 0 0 0 0 0 0 0 32 0 0 0 0 0 0 0 0 0 0 0 33 0 0 0 0 0 0 0 0 0 0 0 0 0 27 0 0 0 0 0 0 0 0 0 35 0 0 0 0 0 0 0 0 0 0 0 0 0 0 0 0 0 0 32 0 23 0 0 0 0 0 22 34 0 0 0 0 0 0 
		54 0 0 0 33 26 0 33 0 0 0 28 0 0 0 0 0 0 0 0 0 0 0 0 0 0 0 29 0 0 0 0 0 0 0 0 29 0 0 0 0 0 0 0 0 0 22 0 0 28 0 35 0 0 0 0 0 0 0 0 0 0 0 0 0 0 0 0 0 0 0 0 0 0 0 0 0 0 35 0 0 0 0 0 0 0 0 0 0 0 0 0 
		55 0 0 0 0 0 27 0 0 0 0 0 0 0 0 0 0 0 0 0 0 0 0 0 0 40 0 0 28 0 32 0 0 21 0 0 0 0 0 0 0 0 0 0 38 0 0 0 0 0 0 0 0 0 0 0 0 0 0 0 0 0 0 0 0 0 0 0 0 0 0 0 0 0 0 0 0 0 0 25 0 0 0 0 0 0 0 0 0 0 0 0 
		56 0 0 0 0 0 0 0 0 0 0 0 21 0 35 0 0 0 0 0 0 29 0 0 0 0 0 0 0 0 0 0 0 0 0 0 0 0 33 0 0 0 0 0 0 0 0 0 0 0 0 0 0 0 35 0 0 0 0 0 34 0 0 0 40 0 0 27 26 0 0 0 0 0 0 0 0 0 0 40 0 0 0 0 24 0 0 0 29 0 0 0 
		57 0 0 0 0 38 0 0 0 0 0 0 0 0 30 0 0 0 20 0 0 0 0 0 0 0 0 0 0 0 0 0 0 0 0 0 0 0 0 0 0 0 0 0 0 0 0 0 0 0 0 22 0 0 0 0 0 0 0 0 0 0 0 0 0 0 0 0 0 0 0 0 0 0 0 0 0 0 0 0 0 0 0 0 0 0 0 0 0 0 24 0 
		58 0 0 0 0 0 0 0 0 0 0 0 0 0 0 0 0 0 0 0 0 0 0 0 23 0 0 0 0 0 0 0 0 0 0 0 0 0 0 0 0 0 0 0 0 0 0 0 0 0 0 0 38 0 0 0 0 0 0 0 0 0 0 0 0 0 0 0 0 0 0 0 0 0 0 0 0 0 0 0 0 0 32 0 0 0 0 0 0 0 0 0 
		59 0 24 0 35 0 0 0 0 0 0 0 0 0 0 0 21 0 20 0 0 0 0 0 0 0 0 0 0 0 0 0 35 0 0 0 0 0 0 0 0 0 0 0 35 0 30 0 0 0 0 0 0 0 0 0 0 34 0 0 0 0 0 0 0 23 0 0 0 0 0 0 0 0 0 0 0 0 0 0 0 0 0 0 0 0 0 0 0 0 25 0 
		60 27 26 0 0 0 0 0 0 0 0 0 0 37 0 0 0 0 0 0 0 0 0 0 0 0 0 0 0 0 0 0 0 0 0 0 0 0 0 0 0 32 0 0 0 0 23 0 0 0 0 0 0 0 0 0 0 0 0 0 0 0 0 0 0 30 0 0 0 0 0 0 0 0 0 0 0 0 0 36 27 0 0 0 20 0 0 0 0 0 0 0 
		61 0 0 0 0 0 0 0 40 0 0 0 0 24 0 0 40 0 28 30 0 0 21 0 0 0 27 0 0 0 0 0 0 0 0 0 0 0 0 0 0 0 0 0 31 33 0 0 0 0 28 0 0 0 0 0 0 0 0 0 0 0 0 0 0 0 23 25 0 0 0 0 0 0 0 0 0 0 0 0 31 0 40 0 0 0 0 0 0 0 0 0 
		62 0 0 0 0 0 0 35 0 0 0 0 0 0 0 0 0 0 0 0 0 0 0 0 0 0 0 0 0 0 0 0 0 0 25 0 31 0 0 28 0 0 38 0 0 0 0 0 0 0 0 0 0 0 0 0 0 0 0 0 0 0 0 0 0 34 27 22 0 0 0 0 37 23 0 0 0 0 0 0 0 0 32 0 0 0 0 0 0 0 0 0 
		63 0 0 20 0 0 32 0 0 0 0 0 0 0 0 0 0 0 0 0 0 0 0 0 26 0 0 0 0 0 0 0 0 23 0 0 0 0 0 0 0 0 0 0 0 0 0 0 0 0 0 0 0 0 0 0 0 40 0 0 0 0 0 0 0 0 0 0 32 0 0 0 0 0 0 0 0 0 0 33 0 0 0 40 0 0 0 0 33 0 0 0 
		64 0 0 0 0 0 40 0 0 0 0 0 0 22 0 0 24 0 0 27 0 0 0 0 0 0 0 0 0 0 0 37 0 0 0 0 0 0 0 31 0 21 0 0 0 0 0 0 0 0 0 0 0 0 0 0 0 0 0 0 23 30 0 34 0 0 0 0 0 0 0 0 0 0 0 26 0 0 0 0 0 0 0 0 0 0 0 0 0 0 0 36 
		65 21 0 0 0 0 0 0 27 0 0 0 0 0 0 0 0 0 0 0 0 0 0 0 0 0 33 0 0 31 0 0 0 0 27 0 40 0 28 0 0 0 0 0 0 0 0 0 0 0 0 0 0 0 0 0 0 0 0 0 0 0 23 27 0 0 0 39 0 0 0 0 0 0 0 30 0 0 0 0 0 0 0 0 0 0 0 0 36 0 28 0 
		66 0 0 0 0 0 0 27 0 0 0 0 0 0 0 0 0 29 0 23 0 0 0 0 0 0 0 0 0 0 0 36 0 0 0 0 0 0 0 0 40 0 0 0 0 0 0 0 39 0 0 0 0 0 0 0 0 27 0 0 0 0 25 22 0 0 39 0 0 0 40 20 0 0 0 0 31 0 0 0 0 0 0 0 24 0 0 26 0 0 0 0 
		67 0 0 0 0 0 0 0 0 0 0 33 0 0 0 0 0 0 0 0 0 0 0 0 0 0 0 0 0 0 0 0 0 0 0 0 0 0 0 0 0 0 0 0 0 0 0 28 0 0 0 0 0 0 0 0 0 26 0 0 0 0 0 0 32 0 0 0 0 0 0 0 0 0 0 0 0 0 0 0 0 0 0 0 0 0 0 0 0 0 0 0 
		68 0 0 0 0 0 0 0 0 0 0 0 0 0 0 37 0 0 26 0 0 39 0 0 0 39 39 0 0 0 0 0 0 0 0 0 0 0 0 26 0 0 0 0 0 0 0 35 0 0 31 0 40 0 0 0 0 0 0 0 0 0 0 0 0 0 0 0 0 0 0 0 0 0 29 21 0 0 0 20 0 0 0 0 0 0 0 0 0 0 0 0 
		69 0 0 28 0 0 0 0 0 0 0 0 0 0 0 0 25 0 0 0 0 0 0 0 0 0 0 0 0 0 0 0 0 0 0 0 0 0 0 38 22 27 0 0 0 0 0 0 0 0 0 0 0 0 0 0 0 0 0 0 0 0 0 0 0 0 0 40 0 0 0 0 0 0 0 0 0 34 0 0 0 0 0 31 0 0 0 0 0 0 0 0 
		70 0 0 0 0 0 0 0 0 0 0 0 0 0 0 38 0 0 0 0 0 0 0 26 0 0 0 0 0 37 0 0 0 0 27 0 0 0 0 0 0 0 0 0 0 0 0 0 29 0 0 0 0 0 0 0 0 0 0 0 0 0 0 0 0 0 0 20 0 0 0 0 23 0 0 0 21 0 0 27 0 0 0 0 22 0 0 33 0 0 25 0 
		71 0 0 0 0 0 0 0 0 0 0 0 0 0 0 0 0 0 0 0 0 0 0 29 0 0 0 26 0 0 0 0 0 0 0 0 0 0 0 0 0 0 0 0 0 0 0 0 0 21 0 35 0 0 0 0 0 0 0 0 0 0 0 37 0 0 0 0 0 0 0 23 0 0 0 0 0 0 0 0 0 0 0 0 0 0 0 0 0 0 0 0 
		72 32 0 0 0 0 0 0 0 0 0 37 0 0 0 0 0 0 0 0 0 0 33 0 0 0 0 28 0 0 0 0 0 0 0 0 0 0 0 0 0 0 0 0 0 0 39 0 0 0 0 0 0 0 0 0 0 0 0 0 0 0 0 23 0 0 0 0 0 0 0 0 0 0 0 0 0 0 0 0 0 0 0 0 0 0 0 0 0 0 0 0 
		73 0 0 0 0 0 0 0 0 36 0 0 0 0 23 0 0 28 24 0 36 22 0 0 0 0 0 27 0 0 0 0 0 0 0 0 0 0 0 0 0 35 0 0 0 32 34 0 27 0 23 0 0 0 0 0 0 0 0 0 0 0 0 0 0 0 0 0 0 29 0 0 0 0 0 0 0 0 0 0 0 0 0 0 0 0 0 0 0 38 0 0 
		74 0 0 0 0 0 0 0 0 0 0 20 21 0 0 0 0 0 0 0 0 0 0 0 0 0 31 0 0 0 20 23 0 31 0 0 0 0 0 0 0 0 0 0 0 0 0 0 0 0 21 0 0 0 0 0 0 0 0 0 0 0 0 0 0 26 30 0 0 21 0 0 0 0 0 0 0 0 0 0 20 0 0 0 0 0 0 0 0 0 0 0 
		75 0 0 0 0 0 0 0 0 0 0 0 30 24 0 0 0 0 0 0 0 0 0 0 0 0 0 0 0 0 0 0 0 0 0 0 0 0 0 0 0 0 0 0 0 0 0 0 0 20 0 0 0 0 32 0 0 0 0 0 0 0 0 0 0 0 0 31 0 0 0 21 0 0 0 0 0 0 0 0 0 0 0 0 0 0 0 38 20 0 0 0 
		76 0 0 0 0 0 0 39 20 0 39 0 0 0 0 0 0 0 34 0 0 0 0 0 0 0 0 0 0 34 0 0 0 0 0 0 0 0 0 0 0 0 39 0 0 0 0 0 0 0 0 0 0 0 0 0 0 0 0 0 0 0 0 0 0 0 0 0 0 0 34 0 0 0 0 0 0 0 0 0 0 0 0 0 0 0 0 0 0 20 0 0 
		77 0 0 0 0 0 0 34 0 0 30 0 0 0 0 24 0 0 0 0 0 0 0 24 0 0 0 0 0 0 0 0 0 0 0 25 0 0 0 0 0 0 0 0 0 0 0 0 0 0 0 24 0 0 23 35 0 0 0 0 0 0 0 0 0 0 0 0 0 0 0 0 0 0 0 0 0 0 0 0 0 38 0 0 35 0 0 0 0 0 0 0 
		78 0 0 0 0 0 0 25 0 0 0 0 0 0 0 32 0 0 0 0 0 0 33 0 0 0 25 0 0 28 0 0 0 23 0 0 0 0 0 0 0 0 0 0 0 29 26 0 0 0 0 0 0 0 0 0 25 40 0 0 0 36 0 0 33 0 0 0 0 20 0 27 0 0 0 0 0 0 0 0 0 0 0 0 0 0 0 0 0 0 0 0 
		79 0 0 28 0 0 0 0 0 0 0 0 0 0 0 0 27 0 0 0 0 0 0 0 0 0 0 0 20 0 0 0 26 0 0 0 0 0 30 0 0 35 34 30 0 0 0 0 0 0 0 0 0 0 0 0 0 0 0 0 0 27 31 0 0 0 0 0 0 0 0 0 0 0 0 20 0 0 0 0 0 0 0 0 20 0 0 0 0 0 0 0 
		80 0 0 0 0 0 0 0 0 0 0 0 0 22 0 0 37 0 0 0 35 0 0 0 0 0 0 0 0 0 0 0 0 0 0 0 0 0 0 0 0 0 0 0 0 0 39 0 0 0 0 0 0 0 0 0 0 0 0 0 0 0 0 0 0 0 0 0 0 0 0 0 0 0 0 0 0 0 38 0 0 0 0 0 0 0 0 0 0 0 0 0 
		81 0 0 0 0 0 0 0 0 0 0 0 0 0 0 0 0 0 35 21 0 0 0 0 0 0 27 0 0 0 0 0 21 0 0 0 0 0 0 37 0 0 0 0 0 0 27 0 0 0 0 0 0 23 0 0 0 0 0 32 0 0 40 32 0 0 0 0 0 0 0 0 0 0 0 0 0 0 0 0 0 0 0 0 0 0 33 0 0 0 0 0 
		82 0 0 0 0 28 33 0 0 0 0 0 0 0 0 22 0 0 0 0 0 34 0 0 0 0 0 0 0 0 0 0 0 0 0 0 0 0 35 0 0 0 27 0 0 0 0 0 0 0 0 0 0 0 0 0 0 0 0 0 0 0 0 0 40 0 0 0 0 0 31 0 0 0 0 0 0 0 0 0 0 0 0 0 0 0 0 0 0 0 0 28 
		83 0 0 0 0 0 0 0 0 0 0 0 0 0 0 0 0 0 27 0 0 0 0 0 0 0 0 0 0 0 0 0 0 0 0 0 0 34 21 0 0 0 0 0 0 0 0 0 0 0 0 0 0 0 22 0 0 24 0 0 0 20 0 0 0 0 0 24 0 0 0 22 0 0 0 0 0 0 35 0 20 0 0 0 0 0 0 0 0 0 22 0 
		84 0 0 0 0 0 0 0 0 0 0 0 0 0 0 0 0 0 0 0 0 0 0 0 31 0 0 0 0 33 0 0 0 0 0 0 0 0 0 0 0 0 0 0 0 0 0 0 0 0 0 0 0 0 34 0 0 0 0 0 0 0 0 0 0 0 0 0 0 0 0 0 0 0 0 0 0 0 0 0 0 0 0 0 0 0 0 0 0 0 0 0 
		85 0 0 0 37 0 0 0 0 0 0 0 40 0 0 0 0 0 26 0 33 0 0 0 0 0 0 0 0 0 32 0 29 0 0 0 34 0 0 0 0 0 0 0 0 0 0 0 0 0 0 0 0 0 0 0 0 0 0 0 0 0 0 0 0 0 0 0 0 0 0 0 0 0 0 0 0 0 0 0 0 0 33 0 0 0 0 0 0 0 0 0 
		86 0 0 0 0 0 0 0 0 0 0 0 0 0 30 0 0 23 0 0 0 0 0 0 39 0 0 0 0 0 0 0 0 0 0 32 0 27 0 0 0 0 0 0 0 0 0 0 0 0 0 0 0 0 0 0 0 0 0 0 0 0 0 0 0 0 0 26 0 0 0 33 0 0 0 0 38 0 0 0 0 0 0 0 0 0 0 0 0 28 0 0 
		87 23 0 0 0 0 0 0 0 0 0 0 0 32 36 0 0 0 0 0 0 0 0 0 0 0 0 0 0 0 0 0 0 0 32 0 0 0 38 0 0 0 30 35 0 0 0 27 0 0 0 0 0 0 0 0 0 29 0 0 0 0 0 0 33 0 36 0 0 0 0 0 0 0 0 0 20 0 0 0 0 0 0 0 0 0 0 0 0 0 0 0 
		88 0 0 0 0 0 21 0 0 0 0 0 0 0 0 0 0 0 0 0 0 0 0 0 0 0 0 0 0 0 0 0 0 0 0 0 0 0 0 0 29 0 0 0 0 0 0 0 0 0 0 0 0 0 0 0 0 0 0 0 0 0 0 0 0 0 0 0 0 0 0 0 0 0 38 0 0 20 0 0 0 0 0 0 0 0 0 28 0 0 0 37 
		89 0 0 0 0 0 0 0 0 33 0 0 0 0 0 36 0 0 0 0 0 0 0 0 0 0 22 0 29 0 0 0 0 0 0 0 0 0 0 0 0 0 0 0 0 0 24 0 0 0 0 0 0 0 0 0 0 0 24 0 25 0 0 0 0 0 28 0 0 0 0 25 0 0 0 0 0 0 0 0 0 0 0 0 22 0 0 0 0 0 0 0 
		90 0 0 0 0 0 39 0 40 0 22 0 0 0 0 0 0 0 0 0 0 0 0 0 0 0 0 0 0 0 0 0 0 0 0 0 0 20 0 28 0 0 0 28 0 0 0 0 0 0 0 0 0 0 0 0 0 0 0 0 0 0 0 0 0 36 0 0 0 0 0 0 0 0 0 0 0 0 0 0 0 0 0 28 0 0 0 0 0 37 0 0 
;
